Route #1: 0 59 31 9 32 12 0
Route #2: 0 22 41 56 44 55 10 38 0
Route #3: 0 30 15 36 28 43 23 49 25 0
Route #4: 0 62 2 54 35 46 34 0
Route #5: 0 47 52 7 11 26 17 0
Route #6: 0 4 33 1 63 24 18 0
Route #7: 0 45 48 20 37 21 42 51 0
Route #8: 0 58 14 19 27 5 0
Route #9: 0 16 50 40 39 53 13 0
Route #10: 0 6 3 64 61 60 57 29 8 0
Cost 1356:
